23
1,3,6,8,12,14,17,19
0,2,5,7,11,13,16,18
1,4,6,9,12,15,17,20
0,4,5,9,11,15,16,20
2,3,7,8,13,14,18,19
1,3,10,12,14,21
0,2,10,11,13,21
1,4,10,12,15,21
0,4,10,11,15,21
2,3,10,13,14,21
5,6,7,8,9,16,17,18,19,20
1,3,6,8,22
0,2,5,7,22
1,4,6,9,22
0,4,5,9,22
2,3,7,8,22
1,3,10,22
0,2,10,22
1,4,10,22
0,4,10,22
2,3,10,22
5,6,7,8,9,22
11,12,13,14,15,16,17,18,19,20,21